p cnf 33 33
x T 13 1 5 9 0
x T 14 2 6 10 0
x T 15 3 7 11 0
x T 16 4 8 12 0
x T 17 .2 1 5 .2 1 9 .2 5 9 0
x T 18 .2 1 6 .2 2 5 .2 1 10 .2 2 9 .2 5 10 .2 6 9 0
x T 19 .2 1 7 .2 2 6 .2 3 5 .2 1 11 .2 2 10 .2 3 9 .2 5 11 .2 6 10 .2 7 9 0
x T 20 .2 1 8 .2 2 7 .2 3 6 .2 4 5 .2 1 12 .2 2 11 .2 3 10 .2 4 9 .2 5 12 .2 6 11 .2 7 10 .2 8 9 0
x T 21 .2 2 8 .2 3 7 .2 4 6 .2 2 12 .2 3 11 .2 4 10 .2 6 12 .2 7 11 .2 8 10 0
x T 22 .2 3 8 .2 4 7 .2 3 12 .2 4 11 .2 7 12 .2 8 11 0
x T 23 .2 4 8 .2 4 12 .2 8 12 0
x T 24 .3 1 5 9 0
x T 25 .3 1 5 10 .3 1 6 9 .3 2 5 9 0
x T 26 .3 1 5 11 .3 1 6 10 .3 1 7 9 .3 2 5 10 .3 2 6 9 .3 3 5 9 0
x T 27 .3 1 5 12 .3 1 6 11 .3 1 7 10 .3 1 8 9 .3 2 5 11 .3 2 6 10 .3 2 7 9 .3 3 5 10 .3 3 6 9 .3 4 5 9 0
x T 28 .3 1 6 12 .3 1 7 11 .3 1 8 10 .3 2 5 12 .3 2 6 11 .3 2 7 10 .3 2 8 9 .3 3 5 11 .3 3 6 10 .3 3 7 9 .3 4 5 10 .3 4 6 9 0
x T 29 .3 1 7 12 .3 1 8 11 .3 2 6 12 .3 2 7 11 .3 2 8 10 .3 3 5 12 .3 3 6 11 .3 3 7 10 .3 3 8 9 .3 4 5 11 .3 4 6 10 .3 4 7 9 0
x T 30 .3 1 8 12 .3 2 7 12 .3 2 8 11 .3 3 6 12 .3 3 7 11 .3 3 8 10 .3 4 5 12 .3 4 6 11 .3 4 7 10 .3 4 8 9 0
x T 31 .3 2 8 12 .3 3 7 12 .3 3 8 11 .3 4 6 12 .3 4 7 11 .3 4 8 10 0
x T 32 .3 3 8 12 .3 4 7 12 .3 4 8 11 0
x T 33 .3 4 8 12 0
x T 13 16 18 19 20 21 24 26 27 28 30 .2 13 24 .2 13 25 .2 13 29 .2 13 31 .2 13 32 .2 14 24 .2 15 26 .2 15 28 .2 15 29 .2 15 33 .2 16 24 .2 16 25 .2 16 26 .2 16 28 .2 16 31 .2 16 32 .2 17 27 .2 17 28 .2 17 29 .2 17 31 .2 17 32 .2 17 33 .2 18 25 .2 18 26 .2 18 27 .2 18 29 .2 18 30 .2 18 31 .2 18 32 .2 18 33 .2 19 24 .2 19 25 .2 19 27 .2 19 28 .2 19 29 .2 19 30 .2 19 31 .2 19 32 .2 19 33 .2 20 25 .2 20 26 .2 20 27 .2 20 28 .2 20 29 .2 20 30 .2 20 31 .2 20 32 .2 20 33 .2 21 24 .2 21 25 .2 21 26 .2 21 27 .2 21 28 .2 21 29 .2 21 30 .2 21 31 .2 21 33 .2 22 24 .2 22 25 .2 22 26 .2 22 27 .2 22 28 .2 22 29 .2 22 31 .2 22 32 .2 23 24 .2 23 25 .2 23 26 .2 23 27 .2 23 29 .2 23 30 .2 23 33 .2 24 27 .2 24 29 .2 24 31 .2 25 27 .2 25 32 .2 26 27 .2 26 28 .2 26 30 .2 26 31 .2 26 33 .2 27 29 .2 27 32 .2 27 33 .2 28 32 .2 28 33 .2 29 31 .2 29 32 0
x 16 18 21 25 26 29 30 31 32 33 .2 13 24 .2 13 27 .2 13 29 .2 13 30 .2 13 31 .2 13 32 .2 14 24 .2 14 26 .2 14 31 .2 14 32 .2 15 25 .2 15 26 .2 15 27 .2 15 28 .2 15 31 .2 16 27 .2 16 28 .2 16 30 .2 16 31 .2 16 32 .2 17 24 .2 17 27 .2 17 30 .2 17 31 .2 18 25 .2 18 28 .2 18 29 .2 19 26 .2 19 27 .2 20 24 .2 20 25 .2 21 32 .2 21 33 .2 22 30 .2 22 31 .2 22 33 .2 23 28 .2 23 29 .2 23 31 .2 23 33 .2 24 25 .2 24 27 .2 24 28 .2 24 30 .2 26 27 .2 26 28 .2 26 29 .2 26 31 .2 26 32 .2 26 33 .2 27 29 .2 27 30 .2 27 31 .2 28 29 .2 28 30 .2 28 32 .2 28 33 .2 29 30 .2 30 32 .2 31 32 .2 31 33 .2 32 33 0
x T 20 24 25 .2 13 24 .2 13 27 .2 13 31 .2 13 32 .2 14 24 .2 14 25 .2 14 26 .2 14 29 .2 15 24 .2 15 25 .2 15 27 .2 15 29 .2 15 31 .2 15 33 .2 16 24 .2 16 25 .2 16 27 .2 16 28 .2 16 29 .2 16 30 .2 16 33 .2 17 25 .2 17 28 .2 17 31 .2 17 32 .2 18 26 .2 18 29 .2 18 30 .2 19 24 .2 19 27 .2 19 28 .2 20 25 .2 20 26 .2 21 24 .2 21 33 .2 22 31 .2 22 32 .2 23 29 .2 23 30 .2 23 32 .2 24 25 .2 24 26 .2 24 29 .2 24 32 .2 24 33 .2 25 27 .2 25 28 .2 25 29 .2 25 31 .2 25 33 .2 26 27 .2 26 28 .2 26 29 .2 26 31 .2 27 28 .2 27 31 .2 28 29 .2 28 32 .2 30 31 .2 30 32 0
x 16 18 19 21 22 23 24 26 27 30 31 32 .2 13 25 .2 13 26 .2 13 27 .2 13 28 .2 13 29 .2 13 30 .2 13 31 .2 13 32 .2 14 27 .2 14 29 .2 14 30 .2 14 31 .2 14 32 .2 15 24 .2 15 28 .2 15 29 .2 15 31 .2 15 32 .2 15 33 .2 16 24 .2 16 27 .2 16 32 .2 17 24 .2 17 26 .2 17 27 .2 17 28 .2 17 31 .2 18 24 .2 18 25 .2 18 26 .2 18 29 .2 18 32 .2 18 33 .2 19 24 .2 19 27 .2 19 30 .2 19 31 .2 19 32 .2 19 33 .2 20 25 .2 20 28 .2 20 29 .2 20 30 .2 20 31 .2 20 32 .2 20 33 .2 21 26 .2 21 27 .2 21 28 .2 21 29 .2 21 30 .2 21 31 .2 21 33 .2 22 24 .2 22 25 .2 22 26 .2 22 27 .2 22 28 .2 22 29 .2 22 31 .2 22 33 .2 23 24 .2 23 25 .2 23 26 .2 23 27 .2 23 29 .2 23 31 .2 24 25 .2 24 28 .2 24 31 .2 24 32 .2 24 33 .2 25 27 .2 25 29 .2 25 30 .2 25 31 .2 25 32 .2 25 33 .2 26 28 .2 26 32 .2 27 30 .2 27 31 .2 27 32 .2 29 30 .2 29 33 .2 30 31 .2 30 32 .2 30 33 .2 31 32 .2 31 33 .2 32 33 0
x T 14 17 18 21 25 27 29 30 .2 13 24 .2 13 25 .2 13 26 .2 13 30 .2 14 24 .2 14 26 .2 14 27 .2 15 24 .2 15 26 .2 15 27 .2 15 31 .2 15 33 .2 16 26 .2 16 29 .2 16 30 .2 16 31 .2 16 33 .2 17 25 .2 17 27 .2 17 28 .2 17 29 .2 17 32 .2 18 25 .2 18 26 .2 18 27 .2 18 30 .2 18 33 .2 19 24 .2 19 25 .2 19 28 .2 19 31 .2 19 32 .2 19 33 .2 20 26 .2 20 29 .2 20 30 .2 20 31 .2 20 32 .2 20 33 .2 21 24 .2 21 27 .2 21 28 .2 21 29 .2 21 30 .2 21 31 .2 21 32 .2 22 25 .2 22 26 .2 22 27 .2 22 28 .2 22 29 .2 22 30 .2 22 32 .2 23 24 .2 23 25 .2 23 26 .2 23 27 .2 23 28 .2 23 30 .2 23 32 .2 24 29 .2 24 31 .2 24 32 .2 25 26 .2 25 27 .2 25 28 .2 25 29 .2 25 31 .2 25 32 .2 26 29 .2 26 30 .2 26 32 .2 27 28 .2 27 29 .2 27 31 .2 28 29 .2 28 31 .2 28 32 .2 29 32 .2 29 33 .2 30 31 .2 30 32 .2 31 32 0
x T 16 17 18 19 23 26 27 28 32 33 .2 13 26 .2 13 29 .2 13 30 .2 13 31 .2 13 33 .2 14 24 .2 14 25 .2 14 26 .2 14 27 .2 14 28 .2 14 29 .2 14 30 .2 14 31 .2 14 32 .2 15 26 .2 15 27 .2 15 28 .2 15 30 .2 15 31 .2 15 32 .2 15 33 .2 16 25 .2 16 26 .2 16 29 .2 16 33 .2 17 24 .2 17 26 .2 17 27 .2 17 30 .2 17 31 .2 17 32 .2 18 24 .2 18 25 .2 18 28 .2 18 29 .2 18 30 .2 18 32 .2 18 33 .2 19 26 .2 19 27 .2 19 28 .2 19 30 .2 19 31 .2 20 24 .2 20 25 .2 20 26 .2 20 28 .2 20 29 .2 21 24 .2 21 26 .2 21 27 .2 21 32 .2 22 24 .2 22 25 .2 22 30 .2 22 32 .2 22 33 .2 23 28 .2 23 30 .2 23 31 .2 24 25 .2 24 26 .2 24 28 .2 24 29 .2 24 32 .2 24 33 .2 25 26 .2 25 28 .2 25 29 .2 25 30 .2 25 31 .2 26 28 .2 26 29 .2 26 30 .2 26 33 .2 27 32 .2 28 29 .2 28 30 .2 28 32 .2 28 33 .2 29 33 .2 30 31 .2 32 33 0
x 16 17 18 19 23 25 26 30 33 .2 13 24 .2 13 25 .2 13 28 .2 14 25 .2 14 30 .2 14 31 .2 14 32 .2 15 24 .2 15 25 .2 15 28 .2 15 31 .2 16 24 .2 16 26 .2 16 28 .2 16 30 .2 16 32 .2 16 33 .2 17 25 .2 17 29 .2 18 27 .2 18 32 .2 19 25 .2 19 30 .2 19 33 .2 20 28 .2 20 31 .2 20 32 .2 20 33 .2 21 26 .2 21 29 .2 21 30 .2 21 31 .2 22 24 .2 22 27 .2 22 28 .2 22 29 .2 22 32 .2 22 33 .2 23 25 .2 23 26 .2 23 27 .2 23 30 .2 23 31 .2 23 32 .2 23 33 .2 24 25 .2 24 26 .2 24 27 .2 24 29 .2 24 30 .2 24 33 .2 25 26 .2 25 29 .2 25 32 .2 25 33 .2 26 27 .2 26 29 .2 26 30 .2 27 30 .2 27 31 .2 27 33 .2 28 29 .2 28 30 .2 28 31 .2 29 30 .2 30 31 .2 30 32 0
x 16 18 19 23 25 26 28 .2 13 24 .2 13 25 .2 13 26 .2 13 27 .2 13 30 .2 14 24 .2 14 29 .2 14 30 .2 14 32 .2 14 33 .2 15 24 .2 15 29 .2 15 30 .2 15 32 .2 16 26 .2 16 33 .2 17 24 .2 17 26 .2 17 27 .2 17 28 .2 17 29 .2 17 30 .2 17 31 .2 17 32 .2 17 33 .2 18 24 .2 18 25 .2 18 26 .2 18 27 .2 18 28 .2 18 29 .2 18 30 .2 18 31 .2 18 32 .2 19 24 .2 19 25 .2 19 26 .2 19 27 .2 19 28 .2 19 29 .2 19 30 .2 19 32 .2 19 33 .2 20 24 .2 20 25 .2 20 26 .2 20 27 .2 20 28 .2 20 30 .2 20 31 .2 21 24 .2 21 25 .2 21 26 .2 21 28 .2 21 29 .2 21 32 .2 21 33 .2 22 24 .2 22 26 .2 22 27 .2 22 30 .2 22 31 .2 22 32 .2 22 33 .2 23 24 .2 23 25 .2 23 28 .2 23 29 .2 23 30 .2 23 31 .2 23 32 .2 24 27 .2 24 28 .2 24 30 .2 24 33 .2 25 28 .2 25 29 .2 25 30 .2 25 31 .2 26 27 .2 26 28 .2 26 32 .2 27 28 .2 27 29 .2 27 30 .2 27 32 .2 28 30 .2 28 32 .2 28 33 .2 29 30 .2 29 31 .2 29 33 .2 30 31 .2 30 32 .2 30 33 .2 31 32 .2 31 33 .2 32 33 0
x T 15 18 19 22 24 26 27 28 31 32 .2 13 26 .2 13 28 .2 13 29 .2 13 33 .2 14 24 .2 14 25 .2 14 26 .2 14 28 .2 14 31 .2 14 32 .2 15 27 .2 15 29 .2 15 30 .2 15 32 .2 15 33 .2 16 26 .2 16 27 .2 16 28 .2 16 30 .2 16 31 .2 17 24 .2 17 25 .2 17 27 .2 17 28 .2 17 29 .2 17 30 .2 17 31 .2 17 32 .2 17 33 .2 18 25 .2 18 26 .2 18 27 .2 18 28 .2 18 29 .2 18 30 .2 18 31 .2 18 32 .2 18 33 .2 19 24 .2 19 25 .2 19 26 .2 19 27 .2 19 28 .2 19 29 .2 19 30 .2 19 31 .2 19 33 .2 20 24 .2 20 25 .2 20 26 .2 20 27 .2 20 28 .2 20 29 .2 20 31 .2 20 32 .2 21 24 .2 21 25 .2 21 26 .2 21 27 .2 21 29 .2 21 30 .2 21 33 .2 22 24 .2 22 25 .2 22 27 .2 22 28 .2 22 31 .2 22 32 .2 22 33 .2 23 25 .2 23 26 .2 23 29 .2 23 30 .2 23 31 .2 23 32 .2 23 33 .2 24 25 .2 24 26 .2 24 28 .2 24 29 .2 24 30 .2 24 33 .2 25 26 .2 25 28 .2 25 30 .2 25 31 .2 26 28 .2 26 30 .2 26 32 .2 27 28 .2 27 29 .2 27 30 .2 28 29 .2 28 32 .2 28 33 .2 29 30 .2 29 31 .2 29 33 .2 30 31 .2 30 32 .2 31 32 0
x T 21 23 24 25 26 28 32 .2 13 25 .2 13 27 .2 13 29 .2 13 31 .2 13 33 .2 14 24 .2 14 25 .2 14 26 .2 14 27 .2 14 30 .2 15 24 .2 15 29 .2 15 30 .2 15 32 .2 15 33 .2 16 24 .2 16 29 .2 16 30 .2 16 32 .2 17 24 .2 17 25 .2 17 26 .2 17 28 .2 17 29 .2 17 30 .2 17 31 .2 17 32 .2 17 33 .2 18 24 .2 18 26 .2 18 27 .2 18 28 .2 18 29 .2 18 30 .2 18 31 .2 18 32 .2 18 33 .2 19 24 .2 19 25 .2 19 26 .2 19 27 .2 19 28 .2 19 29 .2 19 30 .2 19 31 .2 19 32 .2 20 24 .2 20 25 .2 20 26 .2 20 27 .2 20 28 .2 20 29 .2 20 30 .2 20 32 .2 20 33 .2 21 24 .2 21 25 .2 21 26 .2 21 27 .2 21 28 .2 21 30 .2 21 31 .2 22 24 .2 22 25 .2 22 26 .2 22 28 .2 22 29 .2 22 32 .2 22 33 .2 23 24 .2 23 26 .2 23 27 .2 23 30 .2 23 31 .2 23 32 .2 23 33 .2 24 26 .2 24 31 .2 24 33 .2 25 26 .2 25 27 .2 25 29 .2 25 30 .2 25 32 .2 25 33 .2 26 28 .2 26 31 .2 26 32 .2 26 33 .2 27 31 .2 27 32 .2 27 33 .2 28 30 .2 28 31 .2 32 33 0
x T 17 21 23 25 26 27 28 30 31 32 .2 13 24 .2 14 26 .2 14 28 .2 14 29 .2 14 33 .2 15 24 .2 15 25 .2 15 26 .2 15 28 .2 15 31 .2 15 32 .2 16 27 .2 16 29 .2 16 30 .2 16 32 .2 16 33 .2 17 25 .2 17 26 .2 17 27 .2 17 29 .2 17 30 .2 17 31 .2 17 32 .2 17 33 .2 18 24 .2 18 25 .2 18 27 .2 18 28 .2 18 29 .2 18 30 .2 18 31 .2 18 32 .2 18 33 .2 19 25 .2 19 26 .2 19 27 .2 19 28 .2 19 29 .2 19 30 .2 19 31 .2 19 32 .2 19 33 .2 20 24 .2 20 25 .2 20 26 .2 20 27 .2 20 28 .2 20 29 .2 20 30 .2 20 31 .2 20 33 .2 21 24 .2 21 25 .2 21 26 .2 21 27 .2 21 28 .2 21 29 .2 21 31 .2 21 32 .2 22 24 .2 22 25 .2 22 26 .2 22 27 .2 22 29 .2 22 30 .2 22 33 .2 23 24 .2 23 25 .2 23 27 .2 23 28 .2 23 31 .2 23 32 .2 23 33 .2 24 26 .2 24 31 .2 25 28 .2 25 29 .2 25 31 .2 26 29 .2 26 30 .2 26 31 .2 26 32 .2 27 28 .2 27 29 .2 27 33 .2 28 29 .2 28 30 .2 28 31 .2 28 33 .2 29 31 .2 29 33 .2 30 31 .2 30 32 .2 31 32 .2 31 33 .2 32 33 0
x 17 18 20 21 24 26 27 28 29 30 32 .2 13 26 .2 13 31 .2 13 32 .2 14 25 .2 14 27 .2 14 29 .2 14 31 .2 14 33 .2 15 24 .2 15 25 .2 15 26 .2 15 27 .2 15 30 .2 16 24 .2 16 29 .2 16 30 .2 16 32 .2 16 33 .2 17 26 .2 17 27 .2 17 28 .2 17 30 .2 17 31 .2 17 32 .2 17 33 .2 18 24 .2 18 25 .2 18 26 .2 18 28 .2 18 29 .2 18 30 .2 18 31 .2 18 32 .2 18 33 .2 19 24 .2 19 26 .2 19 27 .2 19 28 .2 19 29 .2 19 30 .2 19 31 .2 19 32 .2 19 33 .2 20 24 .2 20 25 .2 20 26 .2 20 27 .2 20 28 .2 20 29 .2 20 30 .2 20 31 .2 20 32 .2 21 24 .2 21 25 .2 21 26 .2 21 27 .2 21 28 .2 21 29 .2 21 30 .2 21 32 .2 21 33 .2 22 24 .2 22 25 .2 22 26 .2 22 27 .2 22 28 .2 22 30 .2 22 31 .2 23 24 .2 23 25 .2 23 26 .2 23 28 .2 23 29 .2 23 32 .2 23 33 .2 24 27 .2 24 28 .2 24 30 .2 24 31 .2 24 32 .2 25 26 .2 25 27 .2 25 29 .2 25 30 .2 25 31 .2 26 27 .2 26 29 .2 26 31 .2 26 32 .2 27 29 .2 27 31 .2 27 33 .2 28 29 .2 28 30 .2 28 31 .2 29 30 .2 29 33 .2 30 31 .2 30 32 .2 31 32 .2 31 33 .2 32 33 0
